Solver command line: ['C:\\Program Files\\IBM\\ILOG\\CPLEX_Studio2211\\cplex\\bin\\x64_win64\\cplex.exe']


Welcome to IBM(R) ILOG(R) CPLEX(R) Interactive Optimizer 22.1.1.0
  with Simplex, Mixed Integer & Barrier Optimizers
5725-A06 5725-A29 5724-Y48 5724-Y49 5724-Y54 5724-Y55 5655-Y21
Copyright IBM Corp. 1988, 2022.  All Rights Reserved.

Type 'help' for a list of available commands.
Type 'help' followed by a command name for more
information on commands.

CPLEX> Logfile 'cplex.log' closed.
Logfile 'C:\Users\wangy\Documents\GitHub\re_optimization\result_site_specific\tmp4ytthx5z.cplex.log' open.
CPLEX> Problem 'C:\Users\wangy\Documents\GitHub\re_optimization\result_site_specific\tmpyvnz5fa1.pyomo.lp' read.
Read time = 0.31 sec. (9.13 ticks)
CPLEX> Problem name         : C:\Users\wangy\Documents\GitHub\re_optimization\result_site_specific\tmpyvnz5fa1.pyomo.lp
Objective sense      : Minimize
Variables            :   65769  [Nneg: 35068,  Free: 8792,  Binary: 9,
                                 Other: 21900]
Objective nonzeros   :      17
Linear constraints   :   87665  [Less: 46741,  Greater: 5,  Equal: 40919]
  Nonzeros           :  224849
  RHS nonzeros       :    3828

Variables            : Min LB: 0.000000         Max UB: 1.000000       
Objective nonzeros   : Min   : 1.000000         Max   : 1.000000       
Linear constraints   :
  Nonzeros           : Min   : 0.003884416      Max   : 100000.0       
  RHS nonzeros       : Min   : 0.04800000       Max   : 100000.0       
CPLEX> Version identifier: 22.1.1.0 | 2022-11-27 | 9160aff4d
Tried aggregator 3 times.
MIP Presolve eliminated 52743 rows and 32301 columns.
Aggregator did 10086 substitutions.
Reduced MIP has 24836 rows, 23382 columns, and 73920 nonzeros.
Reduced MIP has 5 binaries, 0 generals, 0 SOSs, and 0 indicators.
Presolve time = 0.20 sec. (221.73 ticks)
Found incumbent of value 230157.829901 after 0.30 sec. (335.74 ticks)
Probing time = 0.00 sec. (1.34 ticks)
Tried aggregator 1 time.
Detecting symmetries...
Reduced MIP has 24836 rows, 23382 columns, and 73920 nonzeros.
Reduced MIP has 5 binaries, 0 generals, 0 SOSs, and 0 indicators.
Presolve time = 0.05 sec. (47.76 ticks)
Probing time = 0.02 sec. (1.23 ticks)
MIP emphasis: balance optimality and feasibility.
MIP search method: dynamic search.
Parallel mode: deterministic, using up to 16 threads.
Root relaxation solution time = 1.30 sec. (804.22 ticks)

        Nodes                                         Cuts/
   Node  Left     Objective  IInf  Best Integer    Best Bound    ItCnt     Gap

*     0+    0                       230157.8299    -2593.9993           101.13%
      0     0     3525.4184     1   230157.8299     3525.4184       57   98.47%
*     0+    0                         3658.1199     3525.4184             3.63%
      0     0        cutoff           3658.1199                    500    0.00%
Elapsed time = 1.99 sec. (1617.87 ticks, tree = 0.01 MB, solutions = 2)

Root node processing (before b&c):
  Real time             =    1.99 sec. (1620.62 ticks)
Parallel b&c, 16 threads:
  Real time             =    0.00 sec. (0.00 ticks)
  Sync time (average)   =    0.00 sec.
  Wait time (average)   =    0.00 sec.
                          ------------
Total (root+branch&cut) =    1.99 sec. (1620.62 ticks)

Solution pool: 2 solutions saved.

MIP - Integer optimal solution:  Objective =  3.6581199221e+03
Solution time =    1.99 sec.  Iterations = 500  Nodes = 0
Deterministic time = 1620.81 ticks  (816.53 ticks/sec)

CPLEX> Incumbent solution written to file 'C:\Users\wangy\Documents\GitHub\re_optimization\result_site_specific\tmpko6hkca9.cplex.sol'.
CPLEX> 
